p tw 240 5521 8 
1 9 
1 11 
2 7 
2 10 
2 12 
3 4 
3 5 
3 8 
3 10 
4 6 
4 7 
4 9 
5 6 
5 9 
5 10 
6 7 
6 8 
7 8 
7 9 
7 10 
8 9 
8 10 
9 10 
11 18 
11 19 
12 17 
12 20 
13 14 
13 18 
13 20 
13 23 
14 17 
14 19 
14 24 
15 16 
15 19 
15 20 
15 25 
16 17 
16 18 
16 26 
17 18 
17 19 
17 20 
18 19 
18 20 
19 20 
21 28 
21 29 
21 31 
22 27 
22 30 
22 32 
23 24 
23 28 
23 30 
24 27 
24 29 
25 26 
25 29 
25 30 
26 27 
26 28 
27 28 
27 29 
27 30 
28 29 
28 30 
29 30 
31 38 
31 39 
32 37 
32 40 
33 34 
33 38 
33 40 
33 43 
34 37 
34 39 
34 44 
35 36 
35 39 
35 40 
35 45 
36 37 
36 38 
36 46 
37 38 
37 39 
37 40 
38 39 
38 40 
39 40 
41 48 
41 49 
41 51 
42 47 
42 50 
42 52 
43 44 
43 48 
43 50 
44 47 
44 49 
45 46 
45 49 
45 50 
46 47 
46 48 
47 48 
47 49 
47 50 
48 49 
48 50 
49 50 
51 58 
51 59 
52 57 
52 60 
53 54 
53 58 
53 60 
53 63 
54 57 
54 59 
54 64 
55 56 
55 59 
55 60 
55 65 
56 57 
56 58 
56 66 
57 58 
57 59 
57 60 
58 59 
58 60 
59 60 
61 68 
61 69 
61 71 
62 67 
62 70 
62 72 
63 64 
63 68 
63 70 
64 67 
64 69 
65 66 
65 69 
65 70 
66 67 
66 68 
67 68 
67 69 
67 70 
68 69 
68 70 
69 70 
71 78 
71 79 
72 77 
72 80 
73 74 
73 78 
73 80 
73 83 
74 77 
74 79 
74 84 
75 76 
75 79 
75 80 
75 85 
76 77 
76 78 
76 86 
77 78 
77 79 
77 80 
78 79 
78 80 
79 80 
81 88 
81 89 
81 91 
82 87 
82 90 
82 92 
83 84 
83 88 
83 90 
84 87 
84 89 
85 86 
85 89 
85 90 
86 87 
86 88 
87 88 
87 89 
87 90 
88 89 
88 90 
89 90 
91 98 
91 99 
92 97 
92 100 
93 94 
93 98 
93 100 
93 103 
94 97 
94 99 
94 104 
95 96 
95 99 
95 100 
95 105 
96 97 
96 98 
96 106 
97 98 
97 99 
97 100 
98 99 
98 100 
99 100 
101 108 
101 109 
101 111 
102 107 
102 110 
102 112 
103 104 
103 108 
103 110 
104 107 
104 109 
105 106 
105 109 
105 110 
106 107 
106 108 
107 108 
107 109 
107 110 
108 109 
108 110 
109 110 
111 118 
111 119 
112 117 
112 120 
113 114 
113 118 
113 120 
113 123 
114 117 
114 119 
114 124 
115 116 
115 119 
115 120 
115 125 
116 117 
116 118 
116 126 
117 118 
117 119 
117 120 
118 119 
118 120 
119 120 
121 128 
121 129 
121 131 
122 127 
122 130 
122 132 
123 124 
123 128 
123 130 
124 127 
124 129 
125 126 
125 129 
125 130 
126 127 
126 128 
127 128 
127 129 
127 130 
128 129 
128 130 
129 130 
131 138 
131 139 
132 137 
132 140 
133 134 
133 138 
133 140 
133 143 
134 137 
134 139 
134 144 
135 136 
135 139 
135 140 
135 145 
136 137 
136 138 
136 146 
137 138 
137 139 
137 140 
138 139 
138 140 
139 140 
141 148 
141 149 
141 151 
142 147 
142 150 
142 152 
143 144 
143 148 
143 150 
144 147 
144 149 
145 146 
145 149 
145 150 
146 147 
146 148 
147 148 
147 149 
147 150 
148 149 
148 150 
149 150 
151 158 
151 159 
152 157 
152 160 
153 154 
153 158 
153 160 
153 163 
154 157 
154 159 
154 164 
155 156 
155 159 
155 160 
155 165 
156 157 
156 158 
156 166 
157 158 
157 159 
157 160 
158 159 
158 160 
159 160 
161 168 
161 169 
161 171 
162 167 
162 170 
162 172 
163 164 
163 168 
163 170 
164 167 
164 169 
165 166 
165 169 
165 170 
166 167 
166 168 
167 168 
167 169 
167 170 
168 169 
168 170 
169 170 
171 178 
171 179 
172 177 
172 180 
173 174 
173 178 
173 180 
173 183 
174 177 
174 179 
174 184 
175 176 
175 179 
175 180 
175 185 
176 177 
176 178 
176 186 
177 178 
177 179 
177 180 
178 179 
178 180 
179 180 
181 188 
181 189 
181 191 
182 187 
182 190 
182 192 
183 184 
183 188 
183 190 
184 187 
184 189 
185 186 
185 189 
185 190 
186 187 
186 188 
187 188 
187 189 
187 190 
188 189 
188 190 
189 190 
191 198 
191 199 
192 197 
192 200 
193 194 
193 198 
193 200 
193 203 
194 197 
194 199 
194 204 
195 196 
195 199 
195 200 
195 205 
196 197 
196 198 
196 206 
197 198 
197 199 
197 200 
198 199 
198 200 
199 200 
201 208 
201 209 
201 211 
202 207 
202 210 
202 212 
203 204 
203 208 
203 210 
204 207 
204 209 
205 206 
205 209 
205 210 
206 207 
206 208 
207 208 
207 209 
207 210 
208 209 
208 210 
209 210 
211 218 
211 219 
212 217 
212 220 
213 214 
213 218 
213 220 
213 223 
214 217 
214 219 
214 224 
215 216 
215 219 
215 220 
215 225 
216 217 
216 218 
216 226 
217 218 
217 219 
217 220 
218 219 
218 220 
219 220 
221 228 
221 229 
221 231 
222 227 
222 230 
222 232 
223 224 
223 228 
223 230 
224 227 
224 229 
225 226 
225 229 
225 230 
226 227 
226 228 
227 228 
227 229 
227 230 
228 229 
228 230 
229 230 
231 238 
231 239 
232 237 
232 240 
233 234 
233 235 
233 238 
233 240 
234 236 
234 237 
234 239 
235 236 
235 239 
235 240 
236 237 
236 238 
237 238 
237 239 
237 240 
238 239 
238 240 
239 240 
